NAME : A-n61-k9.678305.tour
COMMENT : Length = 678305
COMMENT : Found by LKH [Keld Helsgaun] Sun Dec 17 18:45:20 2017
TYPE : TOUR
DIMENSION : 69
TOUR_SECTION
1
40
29
2
35
17
49
36
19
65
52
59
48
57
28
22
30
37
62
41
26
21
7
3
6
55
47
68
14
13
23
5
27
44
33
64
16
4
39
63
56
34
43
31
11
60
38
46
67
51
18
58
53
32
12
61
45
66
10
15
8
24
20
69
25
50
54
9
42
-1
EOF
